(set-logic ALL)
(declare-fun i4 () Int)
(declare-fun i1 () Int)
(declare-fun i3 () Int)
(declare-fun it1167 () Int)
(declare-fun it1168 () Int)
(declare-fun i2 () Int)
(declare-fun it1169 () Int)
(declare-fun it1170 () Int)
(declare-fun it1171 () Int)
(declare-fun it1172 () Int)
(declare-fun it1556 () Int)
(declare-fun it1557 () Int)
(declare-fun it1558 () Int)
(declare-fun it1559 () Int)
(declare-fun it1560 () Int)
(declare-fun it1561 () Int)
(declare-fun it2020 () Int)
(declare-fun it2021 () Int)
(declare-fun it2022 () Int)
(declare-fun it2023 () Int)
(declare-fun it2024 () Int)
(declare-fun it2025 () Int)
(declare-fun it540 () Int)
(declare-fun it2137 () Int)
(declare-fun it2138 () Int)
(declare-fun it2139 () Int)
(declare-fun it2140 () Int)
(declare-fun it2141 () Int)
(declare-fun it2142 () Int)
(declare-fun it2192 () Int)
(declare-fun it2193 () Int)
(declare-fun it2194 () Int)
(declare-fun it2195 () Int)
(declare-fun it2196 () Int)
(declare-fun it2197 () Int)
(declare-fun it129 () Int)
(assert (and (>= (+ i3 (- 2)) 0) (= (+ i1 (- 1)) 0) (>= (+ i4 (- 2)) 0)))
(assert (= (+ it1167 (- 3)) 0))
(assert (= (+ (* i2 (- 1)) it1168 (- 2)) 0))
(assert (= (+ (* i3 (- 1)) it1169 1) 0))
(assert (= (+ (* i4 (- 1)) it1170) 0))
(assert (= (+ it1171 (* i3 (- 1)) 1) 0))
(assert (= (+ (* i3 (- 2)) it1172 2) 0))
(assert (and (>= (+ (* it1172 (- 1)) it1170) 0)
     (>= (+ it1169 (- 1)) 0)
     (>= (+ it1169 (- 2)) 0)
     (>= (+ (* it1170 (- 1)) 4) 0)
     (>= (+ it1172 (* it1170 (- 1))) 0)
     (>= (+ (* it1167 (- 1)) 3) 0)
     (>= (+ it1170 (- 2)) 0)
     (>= (+ it1167 (- 3)) 0)
     (>= 0 0)
     (<= (+ (* it1172 (- 1)) (* it1169 2) (- 2)) 0)))
(assert (= (+ it1556 (* it1167 (- 1))) 0))
(assert (= (+ (* it1168 (- 1)) it1557 (* it1169 (- 3)) 3) 0))
(assert (= (+ it1558 (- 1)) 0))
(assert (= (+ it1559 (* it1170 (- 1))) 0))
(assert (= (+ it1560 (- 1)) 0))
(assert (= (+ it1561 (- 2)) 0))
(assert (let ((a!1 (>= (+ (+ it1559 (* it1561 (- 1))) (- 1)) 0)))
  (and (= (+ it1556 (- 3)) 0) a!1 (>= (+ it1559 (* it1561 (- 1))) 0))))
(assert (= (+ it2020 (- 4)) 0))
(assert (= (+ (* it1557 (- 1)) it2021 (- 1)) 0))
(assert (= (+ it2022 (* it1558 (- 1))) 0))
(assert (= (+ (* it1559 (- 1)) it2023) 0))
(assert (= (+ (* it1560 (- 1)) it2024) 0))
(assert (= (+ (* it1561 (- 1)) it2025) 0))
(assert (let ((a!1 (>= (+ (+ (* it2022 (- 2)) it2023) (- 1)) 0))
      (a!2 (>= (+ (+ (* it2022 (- 2)) it2023) (- 2)) 0))
      (a!3 (>= (+ (+ (* it2022 (- 2)) it2023) (* it540 (- 1)) (- 1)) 0)))
  (and (>= (+ (* it2020 (- 1)) 4) 0)
       (>= (+ it2023 (- 3)) 0)
       (>= (+ it540 (- 1)) 0)
       (>= (+ it2020 (- 4)) 0)
       a!1
       a!2
       a!3
       (>= (+ it2023 (* it540 (- 1)) (- 2)) 0)
       (>= (+ (* it2022 (- 1)) 1) 0)
       (>= (+ it2023 (- 2)) 0)
       (>= (+ it2022 (- 1)) 0))))
(assert (= (+ (* it2020 (- 1)) it2137) 0))
(assert (= (+ (* it2021 (- 1)) (* it540 (- 3)) it2138) 0))
(assert (= (+ (* it2022 (- 1)) it2139) 0))
(assert (= (+ (* it2023 (- 1)) it2140 it540) 0))
(assert (= (+ (* it2022 (- 1)) it2141) 0))
(assert (= (+ (* it2022 (- 2)) it2142 (- 1)) 0))
(assert (and (= (+ it2137 (- 4)) 0)
     (>= (+ it2140 (- 3)) 0)
     (= (+ it2139 (- 1)) 0)
     (>= (+ it2140 (- 2)) 0)))
(assert (= (+ it2192 (- 3)) 0))
(assert (= (+ (* it2138 (- 1)) it2193 (- 2)) 0))
(assert (= (+ (* it2139 (- 1)) it2194) 0))
(assert (= (+ (* it2140 (- 1)) it2195 1) 0))
(assert (= (+ (* it2139 (- 1)) it2196) 0))
(assert (= (+ (* it2139 (- 2)) it2197) 0))
(assert (let ((a!1 (+ (* (+ 0 it2197) (exp 2 (+ it129 (- 1))) (+ 0 (- 1)))
              (* (exp 2 it129) (+ 0 (- 1)))
              (+ 0 it2195)))
      (a!2 (>= (+ (+ (* it2197 (- 1)) it2195) (- 1)) 0)))
  (and (>= (+ (* it2197 (- 1)) it2195) 0)
       (>= (+ a!1 (+ 0 2)) (+ 0 0))
       (>= (+ it2197 (- 1)) 0)
       (>= (+ a!1 (+ 0 1)) (+ 0 0))
       (>= (+ it2192 (- 3)) 0)
       (>= (+ it129 (- 1)) 0)
       (>= (+ (* it2192 (- 1)) 3) 0)
       a!2)))
(check-sat)
